
List of user-set options:

                                    Name   Value                used
                acceptable_compl_inf_tol = 1e+10                 yes
              acceptable_constr_viol_tol = 1e-06                 yes
                 acceptable_dual_inf_tol = 1e+10                 yes
                         acceptable_iter = 5                     yes
                          acceptable_tol = 1                     yes
                             alpha_for_y = safer-min-dual-infeas  yes
                  bound_mult_init_method = mu-based              yes
                        file_print_level = 5                     yes
                   hessian_approximation = limited-memory        yes
                           linear_solver = mumps                 yes
                      nlp_scaling_method = gradient-based        yes
                             output_file = C:\Users\steph\Documents\GitHub\gtoc13\gtoc13\path_finding\binlp\__main___out/IPOPT.out  yes
                             print_level = 5                     yes
                      print_user_options = yes                   yes
                                      sb = yes                   yes
                                     tol = 1e-06                 yes
This is Ipopt version 3.14.17, running with linear solver MUMPS 5.7.3.

Number of nonzeros in equality constraint Jacobian...:    94239
Number of nonzeros in inequality constraint Jacobian.:      565
Number of nonzeros in Lagrangian Hessian.............:        0

Total number of variables............................:      747
                     variables with only lower bounds:        1
                variables with lower and upper bounds:      183
                     variables with only upper bounds:        0
Total number of equality constraints.................:      743
Total number of inequality constraints...............:        4
        inequality constraints with only lower bounds:        0
   inequality constraints with lower and upper bounds:        0
        inequality constraints with only upper bounds:        4

iter    objective    inf_pr   inf_du lg(mu)  ||d||  lg(rg) alpha_du alpha_pr  ls
   0 -7.0411909e+00 3.08e+04 3.19e-01   0.0 0.00e+00    -  0.00e+00 0.00e+00   0
   1 -7.2174940e+00 2.85e+04 1.17e+04   1.0 4.97e+02    -  1.00e+00 7.03e-02h  1
   2 -7.2130634e+00 2.81e+04 1.49e+04   1.0 2.59e+02    -  1.00e+00 1.31e-02h  1
   3 -7.2129243e+00 2.81e+04 2.87e+02   0.3 2.87e+02    -  1.00e+00 1.33e-04h  1
   4 -7.1940827e+00 2.81e+04 1.94e+04  -5.5 1.65e+06    -  9.83e-06 1.83e-06h  1
   5 -7.0782699e+00 2.79e+04 1.41e+05  -5.5 5.89e+06    -  2.84e-08 3.24e-06h  1
   6 -6.7418837e+00 1.96e+04 1.33e+06   2.0 4.18e+06    -  1.13e-07 5.01e-05f  1
   7 -5.5469099e+00 1.94e+04 1.47e+06   2.0 1.51e+05    -  8.49e-04 4.15e-04h  1
   8 -5.1924898e+00 1.87e+04 6.22e+07   2.0 9.15e+03    -  6.46e-03 5.80e-03f  2
   9 -5.1601235e+00 1.86e+04 6.76e+09   1.5 1.62e+03    -  1.00e+00 2.59e-03h  1
iter    objective    inf_pr   inf_du lg(mu)  ||d||  lg(rg) alpha_du alpha_pr  ls
  10 -5.0430415e+00 1.80e+04 1.24e+10   2.0 1.70e+03    -  4.18e-02 1.54e-02h  1
  11 -5.0651957e+00 1.80e+04 4.16e+13   2.0 4.55e+05    -  3.27e-04 2.22e-04h  1
  12r-5.0651957e+00 1.80e+04 1.00e+03   2.6 0.00e+00    -  0.00e+00 3.83e-07R 10
  13r-5.0648603e+00 1.66e+04 9.92e+02  -3.5 3.84e+05    -  7.98e-03 1.10e-03f  1
  14 -5.0498715e+00 1.66e+04 2.87e+07   1.9 5.52e+03   0.0 1.20e-02 8.98e-04f  1
  15r-5.0498715e+00 1.66e+04 1.00e+03   2.5 0.00e+00   2.2 0.00e+00 4.49e-07R  3
  16r-4.9966493e+00 1.28e+04 9.93e+02  -3.6 5.64e+04    -  7.34e-03 2.70e-03f  1
  17r-4.9607943e+00 1.01e+04 1.33e+03  -3.6 2.93e+04    -  7.05e-03 3.18e-03f  1
  18r-4.9607943e+00 1.01e+04 9.99e+02   2.4 0.00e+00   2.2 0.00e+00 2.95e-07R  2
  19r-4.9569884e+00 9.87e+03 9.97e+02   2.3 1.42e+04    -  1.98e-03 3.40e-04f  1
iter    objective    inf_pr   inf_du lg(mu)  ||d||  lg(rg) alpha_du alpha_pr  ls
  20r-4.9041187e+00 6.09e+03 9.85e+02   1.3 8.90e+03    -  1.18e-02 6.13e-03f  1
  21r-4.8946567e+00 3.14e+03 9.52e+02   0.4 1.70e+03    -  3.34e-02 1.42e-02f  1
  22r-4.9503042e+00 2.76e+03 7.92e+03   2.0 1.16e+04    -  1.71e-02 1.16e-02f  1
  23 -4.9503326e+00 2.76e+03 2.83e+04  -4.0 7.43e+02   2.1 1.20e-01 2.55e-05h  1
  24r-4.9503326e+00 2.76e+03 9.99e+02   2.2 0.00e+00   3.5 0.00e+00 1.29e-07R  2
  25r-4.9501503e+00 1.98e+03 9.42e+02  -3.9 3.80e+03    -  5.72e-02 6.39e-03f  1
  26r-4.9575361e+00 1.53e+03 7.95e+02  -3.8 1.95e+03    -  1.68e-01 1.95e-02f  1
  27r-4.9750271e+00 1.13e+03 7.29e+03   2.2 8.64e+02    -  7.47e-02 6.44e-02f  1
  28r-5.0647162e+00 9.47e+02 1.45e+04   0.7 5.73e+02    -  2.40e-01 4.60e-02f  1
  29r-5.1243655e+00 9.39e+02 1.55e+04  -3.5 9.22e+03    -  1.92e-02 4.14e-03f  1
iter    objective    inf_pr   inf_du lg(mu)  ||d||  lg(rg) alpha_du alpha_pr  ls
  30r-5.1494734e+00 9.29e+02 5.39e+03   0.6 4.33e+03    -  3.03e-02 4.39e-03f  1
  31r-5.2034207e+00 9.07e+02 5.36e+03  -3.5 1.03e+03    -  1.85e-01 1.20e-02f  1
  32r-5.1036342e+00 7.21e+03 4.99e+03   2.9 3.26e+02    -  4.61e-01 1.65e-01f  1
  33r-5.2970365e+00 3.41e+03 4.65e+03  -3.3 4.41e+01    -  8.06e-01 5.06e-01f  1
  34r-5.7894842e+00 6.81e+02 7.18e+03   2.0 3.07e+01    -  9.11e-01 8.09e-01f  1
  35r-5.8513040e+00 6.39e+02 6.08e+03   2.0 3.18e+01    -  9.34e-01 6.88e-02f  1
  36r-7.1149266e+00 2.77e+02 9.65e+03   0.6 2.93e+01    -  9.71e-02 7.83e-01f  1
  37r-7.7935731e+00 2.53e+02 1.16e+04   1.6 2.09e+01    -  8.87e-01 3.72e-01f  1
  38r-7.2103110e+00 3.14e+02 1.03e+04   1.2 1.16e+02    -  1.45e-01 4.88e-02f  1
  39r-5.8451649e+00 1.85e+03 8.72e+03   2.7 1.37e+02    -  1.93e-01 1.35e-01f  1
iter    objective    inf_pr   inf_du lg(mu)  ||d||  lg(rg) alpha_du alpha_pr  ls
  40r-5.7768999e+00 2.11e+03 5.21e+03   1.9 5.30e+01    -  6.53e-01 4.59e-01f  1
  41r-5.7000808e+00 1.39e+03 5.67e+03   1.9 4.19e+01    -  9.55e-01 2.41e-01f  1
  42r-5.7106165e+00 1.31e+03 4.26e+03   1.9 2.55e+01    -  1.00e+00 6.31e-02f  1
  43r-5.7657761e+00 6.30e+02 6.40e+03   1.2 2.95e+01    -  1.00e+00 7.86e-01f  1
  44r-5.8134140e+00 4.84e+02 1.62e+03   1.3 1.30e+01    -  9.46e-01 2.70e-01f  1
  45r-5.8918146e+00 2.30e+02 2.74e+03   0.8 1.08e+01    -  9.80e-01 8.81e-01f  1
  46r-5.9604734e+00 2.29e+02 8.53e+02   1.5 4.49e+01    -  1.00e+00 1.53e-01f  1
  47r-5.8989878e+00 5.07e+02 1.65e+03   1.1 2.56e+01    -  6.17e-01 5.45e-01f  1
  48r-5.9423168e+00 6.08e+02 9.07e+02   1.1 4.20e+01    -  7.36e-01 2.29e-01f  1
  49r-6.3341589e+00 1.20e+03 1.73e+03   1.1 1.80e+01    -  1.62e-01 7.07e-01f  1
iter    objective    inf_pr   inf_du lg(mu)  ||d||  lg(rg) alpha_du alpha_pr  ls
  50r-6.4102937e+00 1.08e+03 2.62e+03   1.1 2.08e+01    -  3.37e-01 1.01e-01f  1
  51r-6.3815936e+00 7.61e+02 1.35e+03   1.1 9.86e+00    -  1.00e+00 2.95e-01f  1
  52r-6.3349147e+00 2.29e+02 2.66e+02   1.1 7.20e+00    -  7.62e-01 7.46e-01f  1
  53r-6.4534781e+00 2.29e+02 1.71e+03   0.4 9.37e+00    -  7.47e-01 7.61e-01f  1
  54r-6.5301490e+00 2.29e+02 1.37e+03   1.2 1.41e+01    -  1.00e+00 5.94e-01f  1
  55r-6.4872844e+00 2.29e+02 7.35e+02   1.0 5.16e+00    -  5.80e-01 9.25e-01f  1
  56r-6.5575857e+00 2.29e+02 6.84e+02   0.6 1.11e+01    -  9.89e-01 2.88e-01f  1
  57r-6.7692655e+00 2.29e+02 1.70e+03   0.6 1.43e+01    -  1.00e+00 7.24e-01f  1
  58r-7.5581045e+00 6.54e+02 1.10e+03   0.9 2.22e+01    -  1.00e+00 1.00e+00f  1
  59r-7.6136091e+00 3.69e+02 1.70e+03   0.8 1.64e+01    -  1.00e+00 4.23e-01f  1
iter    objective    inf_pr   inf_du lg(mu)  ||d||  lg(rg) alpha_du alpha_pr  ls
  60r-7.7416280e+00 2.28e+02 4.05e+02   0.8 1.31e+01    -  4.76e-01 9.54e-01f  1
  61r-7.7370072e+00 2.28e+02 7.18e+02   0.7 1.06e+02    -  8.85e-01 2.05e-02f  1
  62r-7.8819856e+00 2.28e+02 3.64e+02   0.6 3.67e+00    -  9.18e-01 6.50e-01f  1
  63r-8.4972443e+00 2.28e+02 8.34e+02   0.3 1.82e+01    -  6.26e-01 5.71e-01f  1
  64r-8.6677646e+00 2.28e+02 8.99e+02  -5.5 7.56e+01    -  5.49e-02 3.66e-02f  1
  65r-1.1408313e+01 6.82e+02 2.18e+03   1.9 7.66e+02    -  1.37e-01 3.20e-02f  1
  66r-1.0769728e+01 6.16e+02 1.91e+03   0.8 2.34e+01    -  5.79e-02 9.87e-02h  1
  67r-1.0943907e+01 5.73e+02 8.99e+02   0.8 7.15e+00    -  6.22e-01 7.00e-02f  1
  68r-1.3618910e+01 6.11e+02 1.36e+03   0.8 1.48e+01    -  2.45e-01 8.32e-01f  1
  69r-1.9046120e+01 2.35e+02 3.42e+03   0.8 1.21e+01    -  3.25e-01 1.00e+00f  1
iter    objective    inf_pr   inf_du lg(mu)  ||d||  lg(rg) alpha_du alpha_pr  ls
  70r-1.9151002e+01 2.27e+02 2.79e+03   0.8 3.00e+01    -  2.02e-01 2.83e-02f  1
  71r-1.8549393e+01 2.20e+02 2.55e+03   0.8 2.29e+01    -  2.56e-01 1.94e-01f  1
  72r-1.7743233e+01 6.40e+02 1.76e+03   0.8 4.63e+01    -  5.45e-01 3.06e-01f  1
  73r-1.7567583e+01 3.37e+03 2.03e+03   0.8 8.12e+01    -  1.20e-02 1.42e-01F  1
  74r-1.7432761e+01 3.00e+03 1.37e+03   0.8 4.05e+01    -  4.55e-02 1.15e-01f  1
  75r-1.7428607e+01 2.98e+03 1.32e+03   0.8 2.33e+01    -  1.02e-01 7.78e-03h  1
  76r-1.7243800e+01 2.39e+03 1.88e+03   0.8 3.53e+01    -  2.42e-02 3.62e-01h  1
  77r-1.7236192e+01 2.35e+03 1.52e+03   0.8 2.29e+01    -  1.61e-01 1.39e-02h  1
  78r-1.7027808e+01 1.38e+03 1.25e+03   0.8 2.39e+01    -  5.55e-02 3.35e-01h  1
  79r-1.6924420e+01 9.11e+02 5.15e+02   0.8 8.38e+00    -  8.29e-01 3.05e-01h  1
iter    objective    inf_pr   inf_du lg(mu)  ||d||  lg(rg) alpha_du alpha_pr  ls
  80r-1.6654676e+01 3.60e+02 7.37e+02   0.8 1.13e+01    -  1.00e+00 1.00e+00f  1
  81r-1.6640222e+01 2.20e+02 2.89e+02   0.8 8.21e+00    -  8.82e-01 6.13e-01f  1
  82r-1.6654730e+01 2.20e+02 4.51e+02   2.7 3.27e+02    -  5.99e-02 2.73e-02f  1
  83r-1.6880240e+01 2.05e+03 2.08e+03   1.3 1.88e+02    -  4.25e-02 1.62e-01f  1
  84r-1.6686210e+01 8.51e+02 1.15e+03   1.3 1.50e+01    -  8.55e-01 6.29e-01f  1
  85r-1.6595014e+01 2.20e+02 3.40e+02   1.3 7.75e+00    -  1.00e+00 1.00e+00h  1
  86r-1.6603710e+01 2.20e+02 8.41e+02   0.6 6.93e+00    -  9.76e-01 9.12e-01f  1
  87r-1.6543927e+01 4.10e+02 9.00e+02   1.6 3.23e+01    -  5.38e-01 3.03e-01f  1
  88r-1.6591846e+01 2.20e+02 6.07e+02   1.1 9.75e+00    -  4.40e-01 6.93e-01f  1
  89r-1.6597994e+01 2.20e+02 5.92e+02   0.4 1.21e+01    -  7.74e-01 5.97e-01f  1
iter    objective    inf_pr   inf_du lg(mu)  ||d||  lg(rg) alpha_du alpha_pr  ls
  90r-1.6735872e+01 4.03e+02 8.12e+02   0.4 2.36e+01    -  7.40e-01 4.29e-01f  1
  91r-1.6646839e+01 2.20e+02 1.48e+03   0.4 9.55e+00    -  1.00e+00 8.95e-01f  1
  92r-1.6543132e+01 4.77e+02 6.82e+02   0.8 4.48e+01    -  8.48e-01 1.00e+00f  1
  93r-1.6654857e+01 2.20e+02 1.27e+03   0.7 4.14e+01    -  1.00e+00 5.91e-01f  1
  94r-1.6689980e+01 2.20e+02 1.30e+03   0.7 1.83e+01    -  5.52e-01 5.12e-01f  1
  95r-1.6700147e+01 2.20e+02 2.33e+02   0.7 1.12e+01    -  1.00e+00 7.74e-02f  1
  96r-1.6787460e+01 2.20e+02 5.76e+02   0.0 8.70e+00    -  8.92e-01 9.68e-01f  1
  97r-1.6758724e+01 2.20e+02 3.44e+02   0.8 4.97e+00    -  4.59e-01 1.00e+00f  1
  98r-1.6765981e+01 2.20e+02 5.83e+02   0.7 4.17e+00    -  1.00e+00 1.00e+00f  1
  99r-1.6733129e+01 2.20e+02 1.05e+02   0.7 6.49e+00    -  8.68e-01 5.00e-01f  2
iter    objective    inf_pr   inf_du lg(mu)  ||d||  lg(rg) alpha_du alpha_pr  ls
 100r-1.6741201e+01 2.20e+02 1.46e+02  -0.0 6.79e+00    -  1.00e+00 7.59e-01f  1
 101r-1.6781798e+01 2.20e+02 2.02e+02  -0.0 1.69e+01    -  6.96e-01 2.25e-01f  1
 102r-1.6936818e+01 2.20e+02 2.10e+02  -0.0 1.62e+01    -  5.80e-01 8.36e-01f  1
 103r-1.6979105e+01 3.44e+02 2.43e+02   0.6 5.49e+01    -  9.36e-01 2.59e-01f  1
 104r-1.6939135e+01 2.20e+02 7.34e+02   0.2 1.12e+01    -  1.86e-02 8.93e-01f  1
 105r-1.7163171e+01 2.20e+02 6.34e+02   0.2 9.61e+00    -  1.00e+00 9.54e-01f  1
 106r-1.7181094e+01 2.20e+02 3.47e+02   0.2 8.01e+00    -  1.00e+00 1.00e+00f  1
 107r-1.7461268e+01 8.07e+02 1.86e+03   1.1 2.69e+02    -  7.86e-01 1.26e-01f  1
 108r-1.7873691e+01 1.27e+03 7.18e+02   0.6 5.39e+01    -  1.65e-01 4.72e-01f  1
 109r-1.7827353e+01 1.10e+03 3.95e+02   0.6 1.33e+01    -  4.44e-01 1.32e-01f  1
iter    objective    inf_pr   inf_du lg(mu)  ||d||  lg(rg) alpha_du alpha_pr  ls
 110r-1.7364794e+01 5.89e+02 1.03e+03   0.6 2.43e+01    -  1.00e+00 1.00e+00f  1
 111r-1.7412004e+01 4.26e+02 5.37e+02   0.6 2.04e+01    -  5.69e-01 3.15e-01h  1
 112r-1.7327202e+01 2.20e+02 2.69e+02   0.6 1.81e+01    -  1.00e+00 6.88e-01h  1
 113r-1.7348008e+01 2.20e+02 2.80e+02   0.6 2.24e+01    -  4.48e-01 5.72e-01f  1
 114r-1.7329088e+01 2.27e+02 2.76e+02   0.6 3.78e+01    -  1.00e+00 2.86e-01f  2
 115r-1.7279294e+01 2.20e+02 5.01e+02   0.6 9.10e+00    -  1.00e+00 1.00e+00h  1
 116r-1.7235370e+01 2.20e+02 1.46e+02   0.6 6.34e+00    -  1.00e+00 6.65e-01f  1
 117r-1.7231711e+01 2.20e+02 5.45e+01  -0.1 3.70e+00    -  1.00e+00 9.07e-01f  1
 118r-1.7191819e+01 2.20e+02 1.33e+02  -0.8 6.06e+00    -  9.90e-01 6.08e-01f  1
 119r-1.7191501e+01 2.20e+02 3.84e+02   0.3 1.28e+01    -  9.92e-01 2.58e-01f  1
iter    objective    inf_pr   inf_du lg(mu)  ||d||  lg(rg) alpha_du alpha_pr  ls
 120r-1.7216740e+01 2.20e+02 6.63e+01  -0.1 2.54e+00    -  1.00e+00 1.00e+00h  1
 121r-1.7195141e+01 2.20e+02 5.66e+01  -0.7 2.72e+00    -  1.00e+00 9.35e-01f  1
 122r-1.7127760e+01 2.20e+02 2.43e+02   0.3 1.41e+01    -  8.18e-01 3.73e-01f  1
 123r-1.7232686e+01 2.20e+02 6.35e+01  -0.1 6.36e+00    -  7.73e-01 1.00e+00H  1
 124r-1.7146857e+01 2.20e+02 6.01e+01  -0.3 6.58e+00    -  1.00e+00 1.00e+00f  1
 125r-1.7137334e+01 2.20e+02 3.73e+01  -0.4 3.43e+00    -  1.00e+00 6.46e-01f  1
 126r-1.7115151e+01 2.20e+02 1.16e+02  -0.4 6.56e+00    -  1.00e+00 1.00e+00f  1
 127r-1.7128849e+01 2.20e+02 6.87e+01  -0.4 5.37e+00    -  1.00e+00 1.00e+00f  1
 128r-1.7105483e+01 2.20e+02 2.53e+02  -0.4 1.51e+01    -  1.00e+00 1.00e+00f  1
 129r-1.7176173e+01 2.20e+02 2.31e+02  -0.4 1.64e+01    -  9.33e-01 1.00e+00f  1
iter    objective    inf_pr   inf_du lg(mu)  ||d||  lg(rg) alpha_du alpha_pr  ls
 130r-1.7162469e+01 2.20e+02 5.20e+02  -0.4 7.82e+01    -  8.28e-01 1.76e-01F  1
 131r-1.7095256e+01 2.20e+02 3.82e+02  -0.4 2.12e+01    -  2.71e-01 1.00e+00f  1
 132r-1.7089827e+01 2.20e+02 1.52e+02  -0.4 1.07e+02    -  1.00e+00 4.83e-02f  1
 133r-1.7147382e+01 3.76e+02 4.60e+02  -0.4 4.42e+01    -  3.43e-01 1.00e+00f  1
 134r-1.7127727e+01 3.74e+02 1.25e+02  -0.4 2.16e+02    -  1.00e+00 3.63e-02f  1
 135r-1.7114400e+01 2.20e+02 2.16e+02  -0.4 3.62e+01    -  1.00e+00 8.00e-01H  1
 136r-1.7072871e+01 2.20e+02 1.85e+02  -0.4 2.55e+01    -  5.28e-01 2.88e-01f  1
 137r-1.7098526e+01 2.20e+02 2.86e+02  -0.4 1.33e+01    -  1.00e+00 8.00e-01f  1
 138r-1.7088139e+01 2.20e+02 7.70e+01  -0.4 6.26e+00    -  1.00e+00 4.80e-01f  1
 139r-1.7071694e+01 2.20e+02 4.05e+01  -0.4 2.72e+00    -  9.72e-01 1.00e+00f  1
iter    objective    inf_pr   inf_du lg(mu)  ||d||  lg(rg) alpha_du alpha_pr  ls
 140r-1.7051258e+01 2.20e+02 2.99e+01  -0.8 6.20e+00    -  9.70e-01 6.88e-01f  1
 141r-1.6995412e+01 2.20e+02 1.31e+02  -2.1 9.99e+00    -  9.97e-01 4.31e-01f  1
 142r-1.6987849e+01 2.20e+02 1.97e+02   0.7 7.31e+01    -  1.48e-01 3.38e-02f  1
 143r-1.6987477e+01 2.20e+02 2.08e+02  -0.5 1.36e+01    -  1.20e-02 2.93e-02h  1
 144r-1.6997667e+01 2.20e+02 3.49e+02  -0.5 2.19e+01    -  8.53e-01 1.25e-01f  4
 145r-1.6994317e+01 2.20e+02 3.41e+01  -0.5 1.12e+01    -  8.81e-01 1.82e-01f  1
 146r-1.6937967e+01 2.20e+02 1.76e+02  -0.5 2.93e+01    -  3.45e-01 5.00e-01f  2
 147r-1.6903536e+01 2.20e+02 9.40e+01  -0.5 8.74e+00    -  1.00e+00 8.86e-01f  1
 148r-1.6908344e+01 2.20e+02 1.95e+01  -0.5 5.38e+00    -  4.43e-01 2.50e-01f  3
 149r-1.6892939e+01 2.20e+02 1.90e+02  -0.5 6.00e+00    -  1.00e+00 1.00e+00f  1
iter    objective    inf_pr   inf_du lg(mu)  ||d||  lg(rg) alpha_du alpha_pr  ls
 150r-1.6843356e+01 2.20e+02 1.09e+02  -0.5 1.04e+01    -  1.00e+00 1.00e+00f  1
 151r-1.6839156e+01 2.20e+02 3.37e+02  -0.5 1.08e+01    -  3.28e-01 1.00e+00H  1
 152r-1.6756181e+01 2.20e+02 3.50e+02  -0.5 3.66e+01    -  4.49e-01 5.28e-01f  1
 153r-1.6756498e+01 2.20e+02 8.56e+01  -0.5 1.09e+01    -  1.00e+00 9.12e-02f  1
 154r-1.6751661e+01 2.20e+02 1.09e+02  -0.5 2.30e+01    -  3.94e-01 1.25e-01f  4
 155r-1.6762787e+01 2.20e+02 5.98e+01  -0.5 4.75e+01    -  1.00e+00 7.65e-02f  3
 156r-1.6763328e+01 2.20e+02 5.00e+01  -0.5 9.03e+00    -  1.00e+00 2.50e-01h  3
 157r-1.6747022e+01 2.20e+02 2.81e+01  -0.5 9.43e+00    -  1.00e+00 1.00e+00h  1
 158r-1.6779385e+01 2.20e+02 1.44e+02  -0.5 1.31e+01    -  1.00e+00 7.64e-01f  1
 159r-1.6779463e+01 2.20e+02 2.60e+00  -0.5 2.33e+00    -  1.00e+00 1.85e-01h  1
iter    objective    inf_pr   inf_du lg(mu)  ||d||  lg(rg) alpha_du alpha_pr  ls
 160r-1.6779872e+01 2.20e+02 6.44e+01  -0.5 2.31e+00    -  1.00e+00 1.00e+00f  1
 161r-1.6780053e+01 2.20e+02 2.81e+00  -0.5 4.59e-01    -  1.00e+00 1.00e+00f  1
 162r-1.6781511e+01 2.20e+02 1.28e+01  -1.5 1.75e-01    -  1.00e+00 9.83e-01f  1
 163r-1.6769535e+01 2.20e+02 4.94e+01  -0.6 7.81e+00    -  4.11e-01 1.56e-01f  1
 164r-1.6768860e+01 2.20e+02 3.79e+01  -1.2 1.09e+00    -  1.00e+00 8.20e-02f  1
 165r-1.6764084e+01 2.20e+02 4.48e+02  -1.2 1.17e+01    -  1.00e+00 3.92e-02f  1
 166r-1.6762292e+01 2.20e+02 1.17e+01  -1.2 7.83e-01    -  1.00e+00 1.00e+00f  1
 167r-1.6761011e+01 2.20e+02 1.01e+01  -1.2 9.97e-01    -  1.00e+00 1.00e+00f  1
 168r-1.6671738e+01 1.57e+03 9.83e+02  -2.7 1.03e+02    -  1.00e+00 8.80e-01f  1
 169r-1.6670889e+01 1.52e+03 3.12e+02  -1.2 3.34e+02    -  1.00e+00 1.30e-02F  1
iter    objective    inf_pr   inf_du lg(mu)  ||d||  lg(rg) alpha_du alpha_pr  ls
 170r-1.6676182e+01 1.17e+03 2.05e+02  -1.7 3.75e+01    -  3.12e-01 2.29e-01F  1
 171r-1.6644433e+01 1.96e+03 7.08e+02  -2.8 1.76e+02    -  1.00e+00 8.20e-01f  1
 172r-1.6644673e+01 1.94e+03 7.27e+02  -0.5 4.14e+01    -  9.57e-01 9.98e-03f  1
 173r-1.6662763e+01 2.20e+02 2.43e+02  -1.3 3.56e+01    -  6.01e-01 1.00e+00f  1
 174r-1.6664505e+01 2.20e+02 8.73e+01  -1.3 6.08e+00    -  1.00e+00 2.88e-01f  1
 175r-1.6667911e+01 2.20e+02 1.32e+01  -1.3 2.58e+00    -  1.00e+00 9.21e-01f  1
 176r-1.6674472e+01 2.20e+02 2.50e+01  -1.3 5.42e+00    -  4.39e-01 1.00e+00f  1
 177r-1.6685872e+01 2.20e+02 7.22e+01  -1.3 9.62e+00    -  1.00e+00 1.00e+00f  1
 178r-1.6694759e+01 2.20e+02 1.14e+02  -1.3 9.85e+01    -  1.00e+00 7.76e-02f  4
 179r-1.6707249e+01 2.20e+02 1.31e+02  -1.3 1.48e+01    -  1.00e+00 7.35e-01f  1
iter    objective    inf_pr   inf_du lg(mu)  ||d||  lg(rg) alpha_du alpha_pr  ls
 180r-1.6708699e+01 2.20e+02 3.29e+01  -1.3 4.60e+01    -  1.00e+00 2.77e-02h  1
 181r-1.6709560e+01 2.20e+02 3.67e+00  -1.3 2.27e+01    -  1.00e+00 6.25e-02h  5
 182r-1.6680697e+01 1.66e+03 4.85e+02  -1.3 1.64e+02    -  7.43e-02 7.10e-02F  1
 183r-1.6679366e+01 1.63e+03 2.01e+02  -1.3 7.81e+01    -  1.00e+00 2.03e-02h  1
 184r-1.6673578e+01 1.42e+03 1.72e+02  -1.3 6.03e+01    -  1.00e+00 1.25e-01h  4
 185r-1.6673677e+01 1.38e+03 1.31e+02  -1.3 4.58e+01    -  1.00e+00 3.12e-02h  6
 186r-1.6673561e+01 1.37e+03 1.10e+02  -1.3 4.38e+01    -  1.00e+00 3.91e-03h  9
 187r-1.6673002e+01 5.94e+02 1.57e+02  -1.3 3.62e+01    -  1.00e+00 1.00e+00h  1
 188r-1.6700294e+01 9.96e+02 1.22e+02  -1.3 5.00e+01    -  1.00e+00 1.00e+00F  1
 189r-1.6711925e+01 7.72e+02 5.76e+01  -1.3 1.27e+02    -  1.07e-01 1.25e-01h  4
iter    objective    inf_pr   inf_du lg(mu)  ||d||  lg(rg) alpha_du alpha_pr  ls
 190r-1.6712266e+01 7.49e+02 4.71e+01  -1.3 3.01e+01    -  1.00e+00 2.89e-02h  1
 191r-1.6846596e+01 2.89e+04 8.56e+02  -1.3 1.79e+02    -  4.01e-02 1.00e+00F  1
 192r-1.6883732e+01 2.80e+04 2.88e+02  -1.3 3.48e+02    -  1.00e+00 3.12e-02h  6
 193r-1.6916283e+01 2.71e+04 3.22e+02  -1.3 3.39e+02    -  8.31e-01 3.12e-02h  6
 194r-1.6823792e+01 2.70e+04 8.91e+02  -1.3 3.32e+02    -  8.69e-01 1.45e-02H  1
 195r-1.6824084e+01 2.70e+04 8.86e+02  -1.3 1.92e+02    -  5.64e-03 3.19e-04h  1
 196r-1.6831055e+01 2.68e+04 8.83e+02  -1.3 1.86e+02    -  2.89e-04 6.76e-03h  1
 197r-1.6837016e+01 2.66e+04 8.72e+02  -1.3 1.82e+02    -  1.91e-02 5.87e-03h  1
 198r-1.6854643e+01 2.61e+04 8.92e+02  -1.3 1.54e+02    -  2.69e-04 2.06e-02h  2
 199r-1.6856008e+01 2.60e+04 8.90e+02  -1.3 7.95e+01    -  9.48e-03 3.01e-03h  5
iter    objective    inf_pr   inf_du lg(mu)  ||d||  lg(rg) alpha_du alpha_pr  ls
 200r-1.6856206e+01 2.60e+04 8.90e+02  -1.3 6.33e+01    -  4.04e-04 5.27e-04h  8
 201r-1.6856305e+01 2.60e+04 8.74e+02  -1.3 5.81e+01    -  1.90e-02 2.79e-04h  9
 202r-1.6856308e+01 2.60e+04 8.74e+02  -1.3 6.09e+01    -  7.30e-04 3.71e-05h 11
 203r-1.6855196e+01 2.52e+04 9.04e+02  -1.3 6.24e+01    -  1.93e-03 2.76e-02h  1
 204r-1.6855185e+01 2.52e+04 9.00e+02  -1.3 4.52e+01    -  5.06e-03 4.44e-04h  1
 205r-1.6853489e+01 2.27e+04 9.85e+02  -1.3 3.23e+01    -  5.74e-03 8.84e-02h  1
 206r-1.6853615e+01 2.24e+04 9.81e+02  -1.3 2.72e+01    -  1.49e-02 1.46e-02h  1
 207r-1.6857918e+01 1.75e+04 1.38e+03  -1.3 2.83e+01    -  1.78e-02 1.81e-01h  1
 208r-1.6859332e+01 1.69e+04 1.43e+03  -1.3 4.36e+01    -  2.21e-02 3.17e-02h  1
 209r-1.6859583e+01 1.56e+04 1.65e+03  -1.3 1.23e+01    -  4.57e-03 7.80e-02h  1
iter    objective    inf_pr   inf_du lg(mu)  ||d||  lg(rg) alpha_du alpha_pr  ls
 210r-1.6860402e+01 1.50e+04 1.60e+03  -1.3 9.43e+00    -  9.04e-02 3.21e-02h  1
 211r-1.6868666e+01 2.43e+03 4.04e+03  -1.3 8.41e+00    -  6.32e-02 7.58e-01h  1
 212r-1.6888658e+01 7.69e+02 8.69e+02  -1.3 6.41e+00    -  3.05e-01 7.26e-01h  1
 213r-1.6895814e+01 5.59e+02 7.02e+01  -1.3 6.07e+00    -  8.94e-01 2.77e-01f  1
 214r-1.6901703e+01 4.38e+02 6.63e+01  -1.3 5.88e+00    -  3.09e-01 2.20e-01f  1
 215r-1.6906306e+01 3.59e+02 3.61e+01  -1.3 5.76e+00    -  8.22e-01 1.81e-01f  1
 216r-1.6920078e+01 2.20e+02 8.87e+01  -1.3 5.68e+00    -  7.09e-01 5.78e-01f  1
 217r-1.6941035e+01 2.20e+02 1.44e+02  -1.3 5.49e+00    -  6.92e-01 8.61e-01f  1
 218r-1.6965755e+01 2.20e+02 1.45e+02  -1.3 5.37e+00    -  1.00e+00 1.00e+00f  1
 219r-1.6979769e+01 2.20e+02 9.34e+01  -1.3 5.28e+00    -  9.07e-01 5.45e-01f  1
iter    objective    inf_pr   inf_du lg(mu)  ||d||  lg(rg) alpha_du alpha_pr  ls
 220r-1.7019732e+01 2.20e+02 1.54e+02  -1.3 2.30e+03    -  4.36e-03 2.48e-03f  1
 221r-1.7043591e+01 2.20e+02 1.86e+02  -1.3 1.74e+03    -  1.82e-02 2.92e-03f  1
 222r-1.7048286e+01 2.20e+02 1.55e+02  -1.3 1.48e+03    -  6.87e-02 1.29e-03f  1
 223r-1.7056179e+01 2.20e+02 4.94e+01  -1.3 5.22e+00    -  8.08e-01 5.81e-01f  1
 224r-1.7069663e+01 2.20e+02 5.11e+01  -1.3 5.15e+00    -  1.00e+00 1.00e+00f  1
 225r-1.7081828e+01 2.20e+02 4.64e+01  -1.3 5.13e+00    -  8.31e-01 1.00e+00f  1
 226r-1.7094096e+01 2.20e+02 4.78e+01  -1.3 5.08e+00    -  1.00e+00 1.00e+00f  1
 227r-1.7132479e+01 2.20e+02 1.64e+02  -1.3 1.33e+04    -  3.87e-03 9.40e-04f  1
 228r-1.7178655e+01 2.20e+02 9.51e+01  -1.3 1.68e+03    -  8.97e-02 6.38e-03f  1
 229r-1.7193419e+01 2.20e+02 1.23e+02  -1.3 1.95e+03    -  8.26e-03 7.21e-03f  1
iter    objective    inf_pr   inf_du lg(mu)  ||d||  lg(rg) alpha_du alpha_pr  ls
 230r-1.7192596e+01 2.20e+02 1.48e+02  -1.3 3.81e+02    -  1.09e-01 1.24e-02f  1
 231r-1.7168703e+01 2.79e+02 3.87e+02  -1.3 6.87e+02    -  7.92e-03 4.04e-02f  1
 232r-1.7130514e+01 4.56e+02 4.27e+02  -1.3 8.49e+02    -  1.89e-01 2.94e-02f  1
 233r-1.7111667e+01 5.83e+02 6.43e+02  -1.3 2.82e+03    -  2.22e-03 9.23e-03f  1
 234r-1.7106891e+01 5.95e+02 6.94e+02  -1.3 9.70e+04    -  2.44e-03 6.48e-05f  1
 235r-1.7105077e+01 5.96e+02 4.96e+02  -1.3 1.76e+03    -  3.40e-01 1.52e-03f  1
 236r-1.7075072e+01 7.79e+02 8.43e+02  -1.3 3.31e+02    -  7.42e-03 7.50e-02f  1
 237r-1.7069478e+01 7.76e+02 9.89e+02  -1.3 2.66e+02    -  3.08e-01 2.40e-02f  1
 238r-1.7055991e+01 7.05e+02 1.36e+03  -1.3 6.41e+01    -  7.51e-02 2.93e-01f  1
 239r-1.7044541e+01 7.31e+02 1.09e+03  -1.3 9.12e+01    -  3.15e-03 2.14e-01f  1
iter    objective    inf_pr   inf_du lg(mu)  ||d||  lg(rg) alpha_du alpha_pr  ls
 240r-1.7040823e+01 7.32e+02 8.68e+02  -1.3 3.02e+02    -  1.88e-01 1.59e-02f  1
 241r-1.7012335e+01 1.08e+03 1.04e+03  -1.3 2.19e+02    -  7.85e-03 1.29e-01f  1
 242r-1.7003624e+01 1.11e+03 8.97e+02  -1.3 3.45e+02    -  1.76e-01 2.93e-02f  1
 243r-1.7003133e+01 1.10e+03 1.45e+02  -1.3 8.60e+01    -  1.00e+00 3.59e-03f  1
 244r-1.6698700e+01 4.38e+03 1.36e+03  -1.3 1.48e+02    -  1.00e+00 8.47e-01f  1
 245r-1.6715767e+01 3.56e+03 8.58e+02  -1.3 5.26e+01    -  1.00e+00 1.88e-01f  1
 246r-1.6716199e+01 3.53e+03 7.44e+02  -1.3 3.55e+01    -  1.66e-01 8.86e-03h  1
 247r-1.6757502e+01 5.71e+02 3.78e+02  -1.3 5.01e+01    -  6.48e-01 8.31e-01f  1
 248r-1.6757658e+01 5.58e+02 1.24e+02  -1.3 4.50e+01    -  1.00e+00 2.26e-02f  1
 249r-1.6758599e+01 3.00e+02 4.07e+02  -1.3 4.30e+01    -  1.00e+00 4.73e-01f  1
iter    objective    inf_pr   inf_du lg(mu)  ||d||  lg(rg) alpha_du alpha_pr  ls
 250r-1.6757098e+01 2.54e+02 3.56e+02  -1.3 7.57e+01    -  1.00e+00 4.06e-01f  1
 251r-1.6760844e+01 7.15e+02 1.41e+03  -1.3 1.45e+02    -  1.00e+00 4.32e-01f  1
 252r-1.6760882e+01 7.11e+02 2.99e+01  -1.3 7.47e+01    -  1.00e+00 5.48e-03f  1
 253r-1.6761449e+01 6.11e+02 1.80e+01  -1.3 5.19e+00    -  3.45e-01 1.41e-01f  1
 254r-1.6767082e+01 2.20e+02 2.07e+01  -1.3 6.32e+00    -  1.00e+00 1.00e+00f  1
 255r-1.6768713e+01 2.20e+02 1.72e+00  -1.3 1.48e+00    -  1.00e+00 9.83e-01f  1
 256r-1.6769300e+01 2.20e+02 1.83e+00  -1.3 9.92e-01    -  1.00e+00 1.00e+00h  1
 257r-1.6772238e+01 2.20e+02 8.66e+00  -2.0 2.57e+00    -  1.00e+00 1.00e+00f  1
 258r-1.6778670e+01 2.20e+02 1.95e+01  -3.9 8.05e+00    -  1.00e+00 7.15e-01f  1
 259r-1.6779247e+01 2.20e+02 2.46e+00  -3.6 5.11e-01    -  1.00e+00 9.99e-01f  1
iter    objective    inf_pr   inf_du lg(mu)  ||d||  lg(rg) alpha_du alpha_pr  ls
 260r-1.6783275e+01 2.20e+02 4.33e-01  -5.5 5.93e+00    -  1.00e+00 6.10e-01f  1
 261r-1.6783507e+01 2.20e+02 1.73e-02  -5.4 2.06e-01    -  1.00e+00 1.00e+00h  1
 262r-1.6785760e+01 2.20e+02 6.93e-02  -7.5 2.03e+00    -  1.00e+00 1.00e+00h  1
 263r-1.6784739e+01 2.20e+02 2.41e-02  -8.0 9.18e-01  -4.0 1.00e+00 1.00e+00h  1
 264r-1.6783179e+01 2.20e+02 4.69e-02  -8.0 2.97e+00    -  1.00e+00 4.72e-01h  1
 265r-1.6783179e+01 2.20e+02 3.73e-03  -9.0 3.78e-03    -  1.00e+00 1.00e+00h  1
 266r-1.6783179e+01 2.20e+02 1.68e-04  -9.0 1.68e-04    -  1.00e+00 1.00e+00h  1
 267r-1.6783179e+01 2.20e+02 1.67e-04  -9.0 1.67e-04    -  1.00e+00 1.00e+00h  1
 268r-1.6783179e+01 2.20e+02 1.68e-04  -9.0 1.68e-04    -  1.00e+00 1.00e+00h  1

Number of Iterations....: 268

                                   (scaled)                 (unscaled)
Objective...............:  -1.6783178563225540e+01   -1.6783178563225540e+01
Dual infeasibility......:   3.8382728015193281e+00    3.8382728015193281e+00
Constraint violation....:   2.1957287282545894e+02    2.1957287282545894e+02
Variable bound violation:   9.9993778407617620e-09    9.9993778407617620e-09
Complementarity.........:   1.0000000000003926e-09    1.0000000000003926e-09
Overall NLP error.......:   2.1957287282545894e+02    2.1957287282545894e+02


Number of objective function evaluations             = 403
Number of objective gradient evaluations             = 22
Number of equality constraint evaluations            = 403
Number of inequality constraint evaluations          = 403
Number of equality constraint Jacobian evaluations   = 274
Number of inequality constraint Jacobian evaluations = 274
Number of Lagrangian Hessian evaluations             = 0
Total seconds in IPOPT                               = 24.081

EXIT: Converged to a point of local infeasibility. Problem may be infeasible.
